problems/VanDerWaerdenNumbers/VanDerWaerden-models/noch/O2/lingeling/model_3-k3l4n34-solution000001.solution
language Essence 1.3

letting p be
        partition({1, 2, 4, 5, 6, 9, 10, 12, 17, 23, 27, 28, 29, 32}, {3, 7, 16, 20, 24, 26, 31, 34},
                  {8, 11, 13, 14, 15, 18, 19, 21, 22, 25, 30, 33})
